# Objective value = 2.8605076091542514e+03
allocVar_j_0_k_0 1
allocVar_j_0_k_1 0
allocVar_j_0_k_2 0
allocVar_j_1_k_0 0
allocVar_j_1_k_1 1
allocVar_j_1_k_2 0
allocVar_j_2_k_0 0
allocVar_j_2_k_1 1
allocVar_j_2_k_2 0
cum_prob_j_0_k_0_s_0 3.6899954571011580e+02
cum_prob_j_0_k_0_s_1 1.4139072498796038e+03
cum_prob_j_0_k_0_s_2 2.1847815215997944e+03
cum_prob_j_0_k_0_s_3 1.4038513249438408e+03
cum_prob_j_0_k_0_s_4 2.4312438946441703e+03
cum_prob_j_0_k_0_s_5 3.0886927168391085e+03
cum_prob_j_0_k_0_s_6 2.1374643576635244e+03
cum_prob_j_0_k_0_s_7 3.1189799488815174e+03
cum_prob_j_0_k_0_s_8 3.6370229597006123e+03
cum_prob_j_0_k_0_s_9 0
cum_prob_j_0_k_0_s_10 0
cum_prob_j_0_k_0_s_11 0
cum_prob_j_0_k_0_s_12 0
cum_prob_j_0_k_0_s_13 0
cum_prob_j_0_k_0_s_14 0
cum_prob_j_0_k_0_s_15 0
cum_prob_j_0_k_0_s_16 0
cum_prob_j_0_k_0_s_17 0
cum_prob_j_0_k_0_s_18 0
cum_prob_j_0_k_0_s_19 0
cum_prob_j_0_k_0_s_20 0
cum_prob_j_0_k_0_s_21 0
cum_prob_j_0_k_0_s_22 0
cum_prob_j_0_k_0_s_23 0
cum_prob_j_0_k_0_s_24 0
cum_prob_j_0_k_0_s_25 0
cum_prob_j_0_k_0_s_26 0
cum_prob_j_0_k_1_s_0 0
cum_prob_j_0_k_1_s_1 0
cum_prob_j_0_k_1_s_2 0
cum_prob_j_0_k_1_s_3 0
cum_prob_j_0_k_1_s_4 0
cum_prob_j_0_k_1_s_5 0
cum_prob_j_0_k_1_s_6 0
cum_prob_j_0_k_1_s_7 0
cum_prob_j_0_k_1_s_8 0
cum_prob_j_0_k_1_s_9 0
cum_prob_j_0_k_1_s_10 0
cum_prob_j_0_k_1_s_11 0
cum_prob_j_0_k_1_s_12 0
cum_prob_j_0_k_1_s_13 0
cum_prob_j_0_k_1_s_14 0
cum_prob_j_0_k_1_s_15 0
cum_prob_j_0_k_1_s_16 0
cum_prob_j_0_k_1_s_17 0
cum_prob_j_0_k_1_s_18 0
cum_prob_j_0_k_1_s_19 0
cum_prob_j_0_k_1_s_20 0
cum_prob_j_0_k_1_s_21 0
cum_prob_j_0_k_1_s_22 0
cum_prob_j_0_k_1_s_23 0
cum_prob_j_0_k_1_s_24 0
cum_prob_j_0_k_1_s_25 0
cum_prob_j_0_k_1_s_26 0
cum_prob_j_0_k_2_s_0 0
cum_prob_j_0_k_2_s_1 0
cum_prob_j_0_k_2_s_2 0
cum_prob_j_0_k_2_s_3 0
cum_prob_j_0_k_2_s_4 0
cum_prob_j_0_k_2_s_5 0
cum_prob_j_0_k_2_s_6 0
cum_prob_j_0_k_2_s_7 0
cum_prob_j_0_k_2_s_8 0
cum_prob_j_0_k_2_s_9 0
cum_prob_j_0_k_2_s_10 0
cum_prob_j_0_k_2_s_11 0
cum_prob_j_0_k_2_s_12 0
cum_prob_j_0_k_2_s_13 0
cum_prob_j_0_k_2_s_14 0
cum_prob_j_0_k_2_s_15 0
cum_prob_j_0_k_2_s_16 0
cum_prob_j_0_k_2_s_17 0
cum_prob_j_0_k_2_s_18 0
cum_prob_j_0_k_2_s_19 0
cum_prob_j_0_k_2_s_20 0
cum_prob_j_0_k_2_s_21 0
cum_prob_j_0_k_2_s_22 0
cum_prob_j_0_k_2_s_23 0
cum_prob_j_0_k_2_s_24 0
cum_prob_j_0_k_2_s_25 0
cum_prob_j_0_k_2_s_26 0
cum_prob_j_1_k_0_s_0 0
cum_prob_j_1_k_0_s_1 0
cum_prob_j_1_k_0_s_2 0
cum_prob_j_1_k_0_s_3 0
cum_prob_j_1_k_0_s_4 0
cum_prob_j_1_k_0_s_5 0
cum_prob_j_1_k_0_s_6 0
cum_prob_j_1_k_0_s_7 0
cum_prob_j_1_k_0_s_8 0
cum_prob_j_1_k_0_s_9 0
cum_prob_j_1_k_0_s_10 0
cum_prob_j_1_k_0_s_11 0
cum_prob_j_1_k_0_s_12 0
cum_prob_j_1_k_0_s_13 0
cum_prob_j_1_k_0_s_14 0
cum_prob_j_1_k_0_s_15 0
cum_prob_j_1_k_0_s_16 0
cum_prob_j_1_k_0_s_17 0
cum_prob_j_1_k_0_s_18 0
cum_prob_j_1_k_0_s_19 0
cum_prob_j_1_k_0_s_20 0
cum_prob_j_1_k_0_s_21 0
cum_prob_j_1_k_0_s_22 0
cum_prob_j_1_k_0_s_23 0
cum_prob_j_1_k_0_s_24 0
cum_prob_j_1_k_0_s_25 0
cum_prob_j_1_k_0_s_26 0
cum_prob_j_1_k_1_s_0 3.4696033961387940e+01
cum_prob_j_1_k_1_s_1 1.3294589256381974e+02
cum_prob_j_1_k_1_s_2 2.0542912519244655e+02
cum_prob_j_1_k_1_s_3 5.9694964053995022e+02
cum_prob_j_1_k_1_s_4 1.0338204218533215e+03
cum_prob_j_1_k_1_s_5 1.3133826740016270e+03
cum_prob_j_1_k_1_s_6 1.0275856837958731e+03
cum_prob_j_1_k_1_s_7 1.4994491636905973e+03
cum_prob_j_1_k_1_s_8 1.7484982669421290e+03
cum_prob_j_1_k_1_s_9 5.3448336568559837e-15
cum_prob_j_1_k_1_s_10 2.1379334627423935e-14
cum_prob_j_1_k_1_s_11 2.1379334627423935e-14
cum_prob_j_1_k_1_s_12 4.8342239456701157e-14
cum_prob_j_1_k_1_s_13 9.6684478913402314e-14
cum_prob_j_1_k_1_s_14 9.6684478913402314e-14
cum_prob_j_1_k_1_s_15 5.4654930951202928e-14
cum_prob_j_1_k_1_s_16 1.0930986190240586e-13
cum_prob_j_1_k_1_s_17 1.0930986190240586e-13
cum_prob_j_1_k_1_s_18 1.0689667313711967e-14
cum_prob_j_1_k_1_s_19 3.2069001941135905e-14
cum_prob_j_1_k_1_s_20 2.1379334627423935e-14
cum_prob_j_1_k_1_s_21 1.9336895782680463e-13
cum_prob_j_1_k_1_s_22 1.9336895782680463e-13
cum_prob_j_1_k_1_s_23 1.9336895782680463e-13
cum_prob_j_1_k_1_s_24 1.0930986190240586e-13
cum_prob_j_1_k_1_s_25 2.1861972380481171e-13
cum_prob_j_1_k_1_s_26 0
cum_prob_j_1_k_2_s_0 0
cum_prob_j_1_k_2_s_1 0
cum_prob_j_1_k_2_s_2 0
cum_prob_j_1_k_2_s_3 0
cum_prob_j_1_k_2_s_4 0
cum_prob_j_1_k_2_s_5 0
cum_prob_j_1_k_2_s_6 0
cum_prob_j_1_k_2_s_7 0
cum_prob_j_1_k_2_s_8 0
cum_prob_j_1_k_2_s_9 0
cum_prob_j_1_k_2_s_10 0
cum_prob_j_1_k_2_s_11 0
cum_prob_j_1_k_2_s_12 0
cum_prob_j_1_k_2_s_13 0
cum_prob_j_1_k_2_s_14 0
cum_prob_j_1_k_2_s_15 0
cum_prob_j_1_k_2_s_16 0
cum_prob_j_1_k_2_s_17 0
cum_prob_j_1_k_2_s_18 0
cum_prob_j_1_k_2_s_19 0
cum_prob_j_1_k_2_s_20 0
cum_prob_j_1_k_2_s_21 0
cum_prob_j_1_k_2_s_22 0
cum_prob_j_1_k_2_s_23 0
cum_prob_j_1_k_2_s_24 0
cum_prob_j_1_k_2_s_25 0
cum_prob_j_1_k_2_s_26 0
cum_prob_j_2_k_0_s_0 0
cum_prob_j_2_k_0_s_1 0
cum_prob_j_2_k_0_s_2 0
cum_prob_j_2_k_0_s_3 0
cum_prob_j_2_k_0_s_4 0
cum_prob_j_2_k_0_s_5 0
cum_prob_j_2_k_0_s_6 0
cum_prob_j_2_k_0_s_7 0
cum_prob_j_2_k_0_s_8 0
cum_prob_j_2_k_0_s_9 0
cum_prob_j_2_k_0_s_10 0
cum_prob_j_2_k_0_s_11 0
cum_prob_j_2_k_0_s_12 0
cum_prob_j_2_k_0_s_13 0
cum_prob_j_2_k_0_s_14 0
cum_prob_j_2_k_0_s_15 0
cum_prob_j_2_k_0_s_16 0
cum_prob_j_2_k_0_s_17 0
cum_prob_j_2_k_0_s_18 0
cum_prob_j_2_k_0_s_19 0
cum_prob_j_2_k_0_s_20 0
cum_prob_j_2_k_0_s_21 0
cum_prob_j_2_k_0_s_22 0
cum_prob_j_2_k_0_s_23 0
cum_prob_j_2_k_0_s_24 0
cum_prob_j_2_k_0_s_25 0
cum_prob_j_2_k_0_s_26 0
cum_prob_j_2_k_1_s_0 3.2623746740205908e+00
cum_prob_j_2_k_1_s_1 5.6531629359262652e+01
cum_prob_j_2_k_1_s_2 9.8760022512477590e+01
cum_prob_j_2_k_1_s_3 5.6129567752052210e+01
cum_prob_j_2_k_1_s_4 4.3960405082987512e+02
cum_prob_j_2_k_1_s_5 6.3140853240934712e+02
cum_prob_j_2_k_1_s_6 9.6621115656404086e+01
cum_prob_j_2_k_1_s_7 6.3760002456730092e+02
cum_prob_j_2_k_1_s_8 8.4059029139351105e+02
cum_prob_j_2_k_1_s_9 5.0256032082470040e-16
cum_prob_j_2_k_1_s_10 1.2085559864175289e-14
cum_prob_j_2_k_1_s_11 1.0278112059953486e-14
cum_prob_j_2_k_1_s_12 8.0172504852839763e-15
cum_prob_j_2_k_1_s_13 7.2513359185051742e-14
cum_prob_j_2_k_1_s_14 1.0930986190240586e-13
cum_prob_j_2_k_1_s_15 5.3448336568559837e-15
cum_prob_j_2_k_1_s_16 9.6684478913402314e-14
cum_prob_j_2_k_1_s_17 1.6396479285360880e-13
cum_prob_j_2_k_1_s_18 6.6810420710699792e-15
cum_prob_j_2_k_1_s_19 1.3636471926257470e-14
cum_prob_j_2_k_1_s_20 1.2297359464020659e-13
cum_prob_j_2_k_1_s_21 2.1379334627423935e-14
cum_prob_j_2_k_1_s_22 1.9336895782680463e-13
cum_prob_j_2_k_1_s_23 1.6396479285360880e-13
cum_prob_j_2_k_1_s_24 2.1379334627423935e-14
cum_prob_j_2_k_1_s_25 1.4502671837010348e-13
cum_prob_j_2_k_1_s_26 5.4654930951202928e-14
cum_prob_j_2_k_2_s_0 0
cum_prob_j_2_k_2_s_1 0
cum_prob_j_2_k_2_s_2 0
cum_prob_j_2_k_2_s_3 0
cum_prob_j_2_k_2_s_4 0
cum_prob_j_2_k_2_s_5 0
cum_prob_j_2_k_2_s_6 0
cum_prob_j_2_k_2_s_7 0
cum_prob_j_2_k_2_s_8 0
cum_prob_j_2_k_2_s_9 0
cum_prob_j_2_k_2_s_10 0
cum_prob_j_2_k_2_s_11 0
cum_prob_j_2_k_2_s_12 0
cum_prob_j_2_k_2_s_13 0
cum_prob_j_2_k_2_s_14 0
cum_prob_j_2_k_2_s_15 0
cum_prob_j_2_k_2_s_16 0
cum_prob_j_2_k_2_s_17 0
cum_prob_j_2_k_2_s_18 0
cum_prob_j_2_k_2_s_19 0
cum_prob_j_2_k_2_s_20 0
cum_prob_j_2_k_2_s_21 0
cum_prob_j_2_k_2_s_22 0
cum_prob_j_2_k_2_s_23 0
cum_prob_j_2_k_2_s_24 0
cum_prob_j_2_k_2_s_25 0
cum_prob_j_2_k_2_s_26 0
